500
    1    25    15
    2    12     2
    3    24    14
    4    20    10
    5    34    24
    6    44    34
    7    55    45
    8    34    24
    9    58    48
   10    39    29
   11    47    37
   12    17     7
   13    39    29
   14    23    13
   15    53    43
   16    55    45
   17    21    11
   18    54    44
   19    38    28
   20    24    14
   21    15     5
   22    19     9
   23    43    33
   24    17     7
   25    26    16
   26    15     5
   27    44    34
   28    32    22
   29    38    28
   30    23    13
   31    38    28
   32    36    26
   33    35    25
   34    48    38
   35    50    40
   36    42    32
   37    49    39
   38    22    12
   39    40    30
   40    49    39
   41    13     3
   42    35    25
   43    33    23
   44    41    31
   45    36    26
   46    36    26
   47    14     4
   48    18     8
   49    50    40
   50    33    23
   51    26    16
   52    44    34
   53    18     8
   54    52    42
   55    15     5
   56    31    21
   57    13     3
   58    12     2
   59    55    45
   60    18     8
   61    53    43
   62    43    33
   63    23    13
   64    44    34
   65    27    17
   66    30    20
   67    23    13
   68    31    21
   69    58    48
   70    11     1
   71    23    13
   72    49    39
   73    34    24
   74    15     5
   75    58    48
   76    17     7
   77    60    50
   78    36    26
   79    44    34
   80    27    17
   81    33    23
   82    20    10
   83    17     7
   84    31    21
   85    16     6
   86    35    25
   87    55    45
   88    43    33
   89    45    35
   90    30    20
   91    54    44
   92    51    41
   93    23    13
   94    16     6
   95    39    29
   96    58    48
   97    55    45
   98    54    44
   99    12     2
  100    31    21
  101    20    10
  102    19     9
  103    56    46
  104    34    24
  105    17     7
  106    47    37
  107    34    24
  108    55    45
  109    48    38
  110    50    40
  111    49    39
  112    56    46
  113    23    13
  114    18     8
  115    14     4
  116    58    48
  117    12     2
  118    34    24
  119    16     6
  120    23    13
  121    26    16
  122    54    44
  123    38    28
  124    36    26
  125    35    25
  126    57    47
  127    34    24
  128    45    35
  129    35    25
  130    52    42
  131    44    34
  132    59    49
  133    56    46
  134    55    45
  135    54    44
  136    15     5
  137    26    16
  138    38    28
  139    39    29
  140    13     3
  141    27    17
  142    43    33
  143    23    13
  144    39    29
  145    14     4
  146    51    41
  147    19     9
  148    27    17
  149    15     5
  150    30    20
  151    12     2
  152    30    20
  153    42    32
  154    12     2
  155    43    33
  156    11     1
  157    50    40
  158    22    12
  159    48    38
  160    57    47
  161    43    33
  162    49    39
  163    59    49
  164    18     8
  165    44    34
  166    37    27
  167    57    47
  168    40    30
  169    53    43
  170    25    15
  171    57    47
  172    46    36
  173    11     1
  174    18     8
  175    36    26
  176    37    27
  177    56    46
  178    32    22
  179    31    21
  180    48    38
  181    54    44
  182    28    18
  183    58    48
  184    15     5
  185    20    10
  186    45    35
  187    47    37
  188    40    30
  189    32    22
  190    48    38
  191    47    37
  192    26    16
  193    55    45
  194    53    43
  195    30    20
  196    12     2
  197    20    10
  198    46    36
  199    54    44
  200    46    36
  201    19     9
  202    32    22
  203    24    14
  204    31    21
  205    42    32
  206    38    28
  207    22    12
  208    29    19
  209    27    17
  210    13     3
  211    50    40
  212    35    25
  213    17     7
  214    30    20
  215    58    48
  216    48    38
  217    58    48
  218    12     2
  219    13     3
  220    48    38
  221    38    28
  222    33    23
  223    49    39
  224    42    32
  225    15     5
  226    57    47
  227    33    23
  228    45    35
  229    41    31
  230    56    46
  231    32    22
  232    55    45
  233    57    47
  234    25    15
  235    37    27
  236    31    21
  237    27    17
  238    18     8
  239    38    28
  240    57    47
  241    13     3
  242    55    45
  243    50    40
  244    32    22
  245    43    33
  246    20    10
  247    12     2
  248    45    35
  249    13     3
  250    17     7
  251    30    20
  252    50    40
  253    57    47
  254    50    40
  255    25    15
  256    28    18
  257    52    42
  258    53    43
  259    49    39
  260    40    30
  261    53    43
  262    38    28
  263    47    37
  264    11     1
  265    24    14
  266    42    32
  267    26    16
  268    34    24
  269    42    32
  270    11     1
  271    48    38
  272    29    19
  273    25    15
  274    34    24
  275    16     6
  276    47    37
  277    11     1
  278    45    35
  279    58    48
  280    23    13
  281    35    25
  282    36    26
  283    54    44
  284    56    46
  285    41    31
  286    35    25
  287    13     3
  288    15     5
  289    47    37
  290    52    42
  291    18     8
  292    26    16
  293    56    46
  294    15     5
  295    57    47
  296    31    21
  297    22    12
  298    38    28
  299    36    26
  300    54    44
  301    37    27
  302    36    26
  303    22    12
  304    20    10
  305    31    21
  306    53    43
  307    54    44
  308    39    29
  309    13     3
  310    48    38
  311    52    42
  312    54    44
  313    32    22
  314    23    13
  315    51    41
  316    45    35
  317    45    35
  318    33    23
  319    39    29
  320    49    39
  321    59    49
  322    38    28
  323    42    32
  324    49    39
  325    38    28
  326    52    42
  327    33    23
  328    43    33
  329    43    33
  330    24    14
  331    16     6
  332    45    35
  333    30    20
  334    57    47
  335    39    29
  336    48    38
  337    39    29
  338    58    48
  339    55    45
  340    25    15
  341    22    12
  342    26    16
  343    15     5
  344    44    34
  345    14     4
  346    30    20
  347    27    17
  348    44    34
  349    12     2
  350    13     3
  351    60    50
  352    56    46
  353    32    22
  354    15     5
  355    37    27
  356    12     2
  357    50    40
  358    46    36
  359    37    27
  360    30    20
  361    45    35
  362    39    29
  363    16     6
  364    49    39
  365    20    10
  366    19     9
  367    28    18
  368    27    17
  369    34    24
  370    59    49
  371    39    29
  372    33    23
  373    12     2
  374    11     1
  375    41    31
  376    56    46
  377    35    25
  378    45    35
  379    23    13
  380    31    21
  381    56    46
  382    24    14
  383    14     4
  384    31    21
  385    54    44
  386    35    25
  387    58    48
  388    18     8
  389    47    37
  390    52    42
  391    15     5
  392    39    29
  393    29    19
  394    28    18
  395    53    43
  396    14     4
  397    12     2
  398    16     6
  399    21    11
  400    12     2
  401    54    44
  402    38    28
  403    12     2
  404    29    19
  405    58    48
  406    38    28
  407    56    46
  408    28    18
  409    50    40
  410    24    14
  411    26    16
  412    56    46
  413    44    34
  414    39    29
  415    33    23
  416    53    43
  417    31    21
  418    26    16
  419    53    43
  420    13     3
  421    36    26
  422    13     3
  423    19     9
  424    55    45
  425    20    10
  426    15     5
  427    32    22
  428    11     1
  429    59    49
  430    31    21
  431    53    43
  432    14     4
  433    46    36
  434    39    29
  435    35    25
  436    45    35
  437    45    35
  438    43    33
  439    28    18
  440    57    47
  441    15     5
  442    35    25
  443    26    16
  444    18     8
  445    31    21
  446    41    31
  447    29    19
  448    58    48
  449    43    33
  450    50    40
  451    45    35
  452    21    11
  453    21    11
  454    12     2
  455    35    25
  456    55    45
  457    27    17
  458    16     6
  459    30    20
  460    46    36
  461    47    37
  462    48    38
  463    14     4
  464    15     5
  465    36    26
  466    12     2
  467    60    50
  468    55    45
  469    43    33
  470    35    25
  471    47    37
  472    48    38
  473    29    19
  474    30    20
  475    25    15
  476    16     6
  477    42    32
  478    23    13
  479    26    16
  480    26    16
  481    41    31
  482    57    47
  483    45    35
  484    35    25
  485    55    45
  486    36    26
  487    51    41
  488    16     6
  489    14     4
  490    49    39
  491    26    16
  492    42    32
  493    25    15
  494    34    24
  495    53    43
  496    29    19
  497    46    36
  498    19     9
  499    42    32
  500    51    41
10615
